p cnf 155 373
1 0
8 -9 0
-8 9 0
10 -11 0
-10 11 0
7 -8 0
7 -10 0
-7 8 10 0
12 -13 0
-12 13 0
6 -7 0
6 -12 0
-6 7 12 0
-15 7 0
15 -7 0
16 13 0
-16 -13 0
14 -15 0
14 -16 0
-14 15 16 0
-5 6 0
-5 14 0
5 -6 -14 0
19 -9 0
-19 9 0
20 11 0
-20 -11 0
18 -19 0
18 -20 0
-18 19 20 0
21 -13 0
-21 13 0
17 -18 0
17 -21 0
-17 18 21 0
-4 5 0
-4 17 0
4 -5 -17 0
31 -32 0
-31 32 0
33 34 0
-33 -34 0
-30 31 0
-30 33 0
30 -31 -33 0
35 36 0
-35 -36 0
-29 30 0
-29 35 0
29 -30 -35 0
39 9 0
-39 -9 0
40 11 0
-40 -11 0
-38 39 0
-38 40 0
38 -39 -40 0
41 13 0
-41 -13 0
-37 38 0
-37 41 0
37 -38 -41 0
-28 29 0
-28 37 0
28 -29 -37 0
45 32 0
-45 -32 0
46 34 0
-46 -34 0
-44 45 0
-44 46 0
44 -45 -46 0
47 36 0
-47 -36 0
-43 44 0
-43 47 0
43 -44 -47 0
50 9 0
-50 -9 0
51 -11 0
-51 11 0
-49 50 0
-49 51 0
49 -50 -51 0
52 -13 0
-52 13 0
-48 49 0
-48 52 0
48 -49 -52 0
-42 43 0
-42 48 0
42 -43 -48 0
27 -28 0
27 -42 0
-27 28 42 0
56 32 0
-56 -32 0
57 -34 0
-57 34 0
-55 56 0
-55 57 0
55 -56 -57 0
58 -36 0
-58 36 0
-54 55 0
-54 58 0
54 -55 -58 0
61 -9 0
-61 9 0
62 11 0
-62 -11 0
-60 61 0
-60 62 0
60 -61 -62 0
63 13 0
-63 -13 0
-59 60 0
-59 63 0
59 -60 -63 0
-53 54 0
-53 59 0
53 -54 -59 0
26 -27 0
26 -53 0
-26 27 53 0
-66 55 0
66 -55 0
67 36 0
-67 -36 0
-65 66 0
-65 67 0
65 -66 -67 0
-69 49 0
69 -49 0
70 13 0
-70 -13 0
-68 69 0
-68 70 0
68 -69 -70 0
-64 65 0
-64 68 0
64 -65 -68 0
25 -26 0
25 -64 0
-25 26 64 0
-72 43 0
72 -43 0
-73 68 0
73 -68 0
-71 72 0
-71 73 0
71 -72 -73 0
24 -25 0
24 -71 0
-24 25 71 0
-76 44 0
76 -44 0
77 -36 0
-77 36 0
-75 76 0
-75 77 0
75 -76 -77 0
-79 38 0
79 -38 0
80 -13 0
-80 13 0
-78 79 0
-78 80 0
78 -79 -80 0
-74 75 0
-74 78 0
74 -75 -78 0
23 -24 0
23 -74 0
-23 24 74 0
-82 43 0
82 -43 0
-83 78 0
83 -78 0
-81 82 0
-81 83 0
81 -82 -83 0
22 -23 0
22 -81 0
-22 23 81 0
-3 4 0
-3 22 0
3 -4 -22 0
89 -32 0
-89 32 0
90 -34 0
-90 34 0
88 -89 0
88 -90 0
-88 89 90 0
91 -36 0
-91 36 0
87 -88 0
87 -91 0
-87 88 91 0
-93 88 0
93 -88 0
94 36 0
-94 -36 0
92 -93 0
92 -94 0
-92 93 94 0
-86 87 0
-86 92 0
86 -87 -92 0
97 -32 0
-97 32 0
98 34 0
-98 -34 0
96 -97 0
96 -98 0
-96 97 98 0
99 -36 0
-99 36 0
95 -96 0
95 -99 0
-95 96 99 0
-85 86 0
-85 95 0
85 -86 -95 0
-107 29 0
107 -29 0
-108 43 0
108 -43 0
-106 107 0
-106 108 0
106 -107 -108 0
-110 43 0
110 -43 0
-111 54 0
111 -54 0
-109 110 0
-109 111 0
109 -110 -111 0
105 -106 0
105 -109 0
-105 106 109 0
-113 54 0
113 -54 0
-114 29 0
114 -29 0
-112 113 0
-112 114 0
112 -113 -114 0
104 -105 0
104 -112 0
-104 105 112 0
-116 65 0
116 -65 0
-117 65 0
117 -65 0
-115 116 0
-115 117 0
115 -116 -117 0
103 -104 0
103 -115 0
-103 104 115 0
-119 43 0
119 -43 0
-120 65 0
120 -65 0
-118 119 0
-118 120 0
118 -119 -120 0
102 -103 0
102 -118 0
-102 103 118 0
-122 75 0
122 -75 0
-123 75 0
123 -75 0
-121 122 0
-121 123 0
121 -122 -123 0
101 -102 0
101 -121 0
-101 102 121 0
-125 43 0
125 -43 0
-126 75 0
126 -75 0
-124 125 0
-124 126 0
124 -125 -126 0
100 -101 0
100 -124 0
-100 101 124 0
-84 85 0
-84 100 0
84 -85 -100 0
2 -3 0
2 -84 0
-2 3 84 0
-135 59 0
135 -59 0
-136 43 0
136 -43 0
-134 135 0
-134 136 0
134 -135 -136 0
-138 37 0
138 -37 0
-139 54 0
139 -54 0
-137 138 0
-137 139 0
137 -138 -139 0
133 -134 0
133 -137 0
-133 134 137 0
-141 48 0
141 -48 0
-142 29 0
142 -29 0
-140 141 0
-140 142 0
140 -141 -142 0
132 -133 0
132 -140 0
-132 133 140 0
-144 68 0
144 -68 0
-145 65 0
145 -65 0
-143 144 0
-143 145 0
143 -144 -145 0
131 -132 0
131 -143 0
-131 132 143 0
-147 37 0
147 -37 0
-148 65 0
148 -65 0
-146 147 0
-146 148 0
146 -147 -148 0
130 -131 0
130 -146 0
-130 131 146 0
-150 78 0
150 -78 0
-151 75 0
151 -75 0
-149 150 0
-149 151 0
149 -150 -151 0
129 -130 0
129 -149 0
-129 130 149 0
-153 37 0
153 -37 0
-154 75 0
154 -75 0
-152 153 0
-152 154 0
152 -153 -154 0
128 -129 0
128 -152 0
-128 129 152 0
-155 37 0
155 -37 0
-127 128 0
-127 155 0
127 -128 -155 0
-1 2 0
-1 127 0
1 -2 -127 0
